10
2 1 5
4 1 79
4 3 73
5 0 70
5 1 35
5 4 71
6 0 2
6 1 49
6 3 77
6 5 51
7 0 39
7 1 23
7 2 53
7 3 9
7 4 8
7 5 41
7 6 77
8 1 12
8 2 39
8 3 78
8 5 62
8 6 2
8 7 20
9 0 4
9 1 26
9 3 75
9 4 15
9 7 33
9 8 30
